<number of tasks>
94
<number of stations>
23
<task times>
1 158
2 42
3 17
4 24
5 71
6 66
7 50
8 55
9 30
10 28
11 113
12 114
13 57
14 65
15 15
16 11
17 10
18 19
19 8
20 17
21 57
22 40
23 17
24 11
25 17
26 27
27 17
28 18
29 16
30 18
31 50
32 18
33 13
34 21
35 63
36 8
37 63
38 9
39 20
40 72
41 30
42 69
43 27
44 9
45 41
46 38
47 76
48 31
49 11
50 29
51 48
52 8
53 171
54 48
55 43
56 18
57 94
58 9
59 19
60 24
61 8
62 34
63 62
64 12
65 8
66 47
67 27
68 18
69 52
70 65
71 72
72 51
73 58
74 53
75 76
76 93
77 86
78 76
79 9
80 14
81 55
82 32
83 22
84 35
85 63
86 59
87 149
88 40
89 24
90 123
91 25
92 115
93 103
94 54
<precedence relations>
1,2
1,3
1,4
1,5
1,6
1,7
1,8
1,9
1,10
2,11
2,17
3,12
4,11
4,16
5,11
5,13
5,16
5,18
6,11
6,13
6,15
6,19
7,42
8,29
9,11
10,19
10,37
10,48
10,50
11,14
12,20
12,52
12,61
13,82
14,21
14,22
14,23
14,24
14,25
14,26
14,27
14,28
14,29
14,30
14,31
14,32
15,81
16,75
17,82
18,75
19,75
20,78
21,39
21,40
21,41
21,53
21,60
21,71
22,38
22,49
22,58
22,72
23,34
23,35
24,37
24,44
25,33
25,56
25,57
25,60
25,63
25,65
25,73
26,41
26,43
27,54
27,55
27,56
27,58
27,62
28,33
28,35
28,40
28,43
28,49
28,51
28,52
28,54
29,75
30,36
30,42
30,59
31,74
32,36
32,44
32,45
32,46
32,47
32,48
32,50
32,60
32,69
33,78
34,78
35,78
36,82
37,61
37,62
37,64
37,66
37,67
37,68
37,69
37,70
37,71
37,72
37,73
38,82
39,82
40,78
41,78
42,74
43,78
44,75
45,75
46,75
46,76
47,75
48,75
49,78
50,75
51,78
52,78
53,76
53,77
54,78
55,77
56,77
57,76
57,77
58,77
59,82
60,77
61,77
62,77
63,77
64,74
65,74
66,75
66,76
67,74
68,82
69,75
69,77
70,76
70,77
71,76
72,76
73,77
74,82
75,82
76,82
77,78
78,79
78,80
79,81
80,81
81,82
82,83
83,84
83,85
84,86
85,86
86,87
87,88
88,89
88,90
89,92
90,91
90,93
92,94
<end>